
Gurobi 10.0.0 (linux64) logging started Sun Jan 28 13:22:59 2024

Set parameter LogFile to value "../results/logs/log_ca-citeseer_3_250_2024_01_28_10_47.log"
Set parameter LazyConstraints to value 1
Gurobi Optimizer version 10.0.0 build v10.0.0rc2 (linux64)

CPU model: Intel(R) Core(TM) i7-9800X CPU @ 3.80GHz, instruction set [SSE2|AVX|AVX2|AVX512]
Thread count: 8 physical cores, 8 logical processors, using up to 8 threads

Optimize a model with 16987 rows, 454640 columns and 163125 nonzeros
Model fingerprint: 0x22709138
Variable types: 0 continuous, 454640 integer (454640 binary)
Coefficient statistics:
  Matrix range     [1e+00, 3e+00]
  Objective range  [1e+00, 1e+00]
  Bounds range     [1e+00, 1e+00]
  RHS range        [1e+00, 2e+02]
Found heuristic solution: objective 152966.00000
Presolve removed 0 rows and 371793 columns
Presolve time: 0.22s
Presolved: 16987 rows, 82847 columns, 126410 nonzeros
Variable types: 0 continuous, 82847 integer (82847 binary)
Found heuristic solution: objective 153224.00000
Root relaxation presolved: 16987 rows, 82847 columns, 126410 nonzeros

Deterministic concurrent LP optimizer: primal and dual simplex
Showing first log only...

Concurrent spin time: 0.02s

Solved with primal simplex

Use crossover to convert LP symmetric solution to basic solution...

Root relaxation: objective 1.544786e+05, 3215 iterations, 0.12 seconds (0.09 work units)

    Nodes    |    Current Node    |     Objective Bounds      |     Work
 Expl Unexpl |  Obj  Depth IntInf | Incumbent    BestBd   Gap | It/Node Time

     0     0 154478.568    0 1943 153224.000 154478.568  0.82%     -    1s
H    0     0                    153508.00000 154478.568  0.63%     -    1s
     0     0 153832.119    0  594 153508.000 153832.119  0.21%     -   13s
H    0     0                    153649.00000 153832.119  0.12%     -   13s
H    0     0                    153763.00000 153832.119  0.04%     -   14s
     0     0 153827.994    0  587 153763.000 153827.994  0.04%     -   26s
     0     0 153827.728    0  589 153763.000 153827.728  0.04%     -   38s
     0     0 153794.672    0  199 153763.000 153794.672  0.02%     -   50s
     0     0 153794.509    0  195 153763.000 153794.509  0.02%     -   62s
     0     0 153779.947    0  148 153763.000 153779.947  0.01%     -   74s
     0     0 153778.230    0  136 153763.000 153778.230  0.01%     -   86s
     0     0 153771.786    0   52 153763.000 153771.786  0.01%     -   98s
     0     0 153770.714    0   52 153763.000 153770.714  0.01%     -  110s
     0     0 153770.311    0   75 153763.000 153770.311  0.00%     -  122s
     0     0 153769.828    0   45 153763.000 153769.828  0.00%     -  134s
H    0     0                    153764.00000 153768.811  0.00%     -  146s
     0     2 153768.811    0   44 153764.000 153768.811  0.00%     -  158s
     1     4 153768.811    1   51 153764.000 153768.811  0.00%   415  170s
     3     7 153768.811    2   49 153764.000 153768.811  0.00%   146  193s
     7    14 153768.811    3   45 153764.000 153768.811  0.00%  69.1  241s
    13    14 153767.744    3   32 153764.000 153768.811  0.00%  40.8  311s
    14    22 153768.811    4   32 153764.000 153768.811  0.00%  39.6  323s
    22    28 153768.811    5   37 153764.000 153768.811  0.00%  31.1  417s
    26    28 153768.811    5   25 153764.000 153768.811  0.00%  27.0  464s
    28    28 153767.417    5   21 153764.000 153768.811  0.00%  25.9  488s
    30    34 153768.750    6   29 153764.000 153768.811  0.00%  24.4  512s
    36    34 153767.333    6   13 153764.000 153768.811  0.00%  21.5  582s
    38    42 153768.583    7   37 153764.000 153768.811  0.00%  20.6  606s
    42    42 153768.811    7   22 153764.000 153768.811  0.00%  19.5  653s
    46    50 153768.083    8   25 153764.000 153768.811  0.00%  18.0  700s
    51    50 153768.811    8   25 153764.000 153768.811  0.00%  17.1  758s
    55    69 153768.000   10   22 153764.000 153768.811  0.00%  16.8  806s
    65    69 153768.811    9   27 153764.000 153768.811  0.00%  16.0  923s
    68    69 153767.333    9   28 153764.000 153768.811  0.00%  15.5  958s
    74    99 153768.000   11   25 153764.000 153768.811  0.00%  14.7 1029s
    77    99 153766.333   10   33 153764.000 153768.811  0.00%  14.5 1064s
    97    99 153768.000   10   19 153764.000 153768.811  0.00%  12.5 1295s
   110   158 153767.958   14   32 153764.000 153768.811  0.00%  11.5 1446s
   115   158 153766.313   15   30 153764.000 153768.811  0.00%  11.3 1504s
   123   158 153765.958   23   30 153764.000 153768.811  0.00%  11.0 1596s
   181   186 153767.833   19   27 153764.000 153768.811  0.00%   9.6 2264s
   233   320 153767.398   22   39 153764.000 153768.811  0.00%  10.3 2820s
   239   320 153767.107   27   38 153764.000 153768.811  0.00%  10.1 2890s
   245   320 153767.090   33   32 153764.000 153768.811  0.00%   9.9 2958s
   251   320 153767.077   39   33 153764.000 153768.811  0.00%   9.8 3029s
   272   320 153768.245   18   33 153764.000 153768.811  0.00%  10.0 3271s
   278   320 153767.900   24   39 153764.000 153768.811  0.00%   9.9 3340s
   282   320 153765.872   33   43 153764.000 153768.811  0.00%   9.8 3387s
   288   320 153765.450   39   18 153764.000 153768.811  0.00%   9.8 3456s
   294   320 153765.250   45   10 153764.000 153768.811  0.00%   9.8 3525s
   301   320 153768.167   15   17 153764.000 153768.811  0.00%   9.7 3594s
   307   320 153767.807   21   29 153764.000 153768.811  0.00%   9.7 3664s
   313   320 153767.105   27   28 153764.000 153768.811  0.00%   9.7 3734s
   379   320 153766.207   25   31 153764.000 153768.811  0.00%   9.2 4497s
   385   320 153765.850   31   29 153764.000 153768.811  0.00%   9.2 4567s
   391   320 153765.250   37   20 153764.000 153768.811  0.00%   9.1 4636s
   399   320 153768.078   17   31 153764.000 153768.811  0.00%   9.1 4705s
   405   320 153767.833   23   36 153764.000 153768.811  0.00%   9.1 4775s
   411   320 153767.294   29   28 153764.000 153768.811  0.00%   9.1 4844s

Cutting planes:
  Gomory: 246
  Cover: 1301
  MIR: 919
  StrongCG: 26
  GUB cover: 1554
  Zero half: 188
  Mod-K: 1
  RLT: 74
  Lazy constraints: 459

Explored 454 nodes (12066 simplex iterations) in 5329.63 seconds (14.43 work units)
Thread count was 8 (of 8 available processors)

Solution count 6: 153764 153763 153649 ... 152966

Time limit reached
Best objective 1.537640000000e+05, best bound 1.537680000000e+05, gap 0.0026%

User-callback calls 3459, time in user-callback 5313.61 sec
